(declare-fun cmp235.i.i_27_101 () (_ BitVec 1))
(declare-fun narrow_27_103 () (_ BitVec 1))
(declare-fun cmp231.not.i.i_27_100 () (_ BitVec 1))
(declare-fun i141.i.i_27_98 () (_ BitVec 64))
(declare-fun i135.i.i_27_97 () (_ BitVec 64))
(declare-fun i143.i.i_27_99 () (_ BitVec 64))
(declare-fun i133.i.i_27_96 () (_ BitVec 64))
(declare-fun src_reg_27_25 () (_ BitVec 64))
(declare-fun src_reg_27_24 () (_ BitVec 64))
(declare-fun dst_reg_27_7 () (_ BitVec 64))
(declare-fun dst_reg_27_6 () (_ BitVec 64))
(declare-fun i30.i32_27_95 () (_ BitVec 32))
(declare-fun src_reg_27_29 () (_ BitVec 32))
(declare-fun i29.i29_27_94 () (_ BitVec 32))
(declare-fun src_reg_27_28 () (_ BitVec 32))
(declare-fun i28.i26_27_93 () (_ BitVec 32))
(declare-fun src_reg_27_27 () (_ BitVec 32))
(declare-fun i27.i23_27_92 () (_ BitVec 32))
(declare-fun src_reg_27_26 () (_ BitVec 32))
(declare-fun i26.i20_27_91 () (_ BitVec 64))
(declare-fun i25.i17_27_90 () (_ BitVec 64))
(declare-fun i24.i14_27_89 () (_ BitVec 64))
(declare-fun src_reg_27_23 () (_ BitVec 64))
(declare-fun i23.i11_27_88 () (_ BitVec 64))
(declare-fun src_reg_27_22 () (_ BitVec 64))
(declare-fun i22.i8_27_87 () (_ BitVec 64))
(declare-fun src_reg_27_21 () (_ BitVec 64))
(declare-fun i21.i5_27_86 () (_ BitVec 64))
(declare-fun src_reg_27_20 () (_ BitVec 64))
(declare-fun i.i2_27_85 () (_ BitVec 32))
(declare-fun i30.i_27_84 () (_ BitVec 32))
(declare-fun dst_reg_27_11 () (_ BitVec 32))
(declare-fun i29.i_27_83 () (_ BitVec 32))
(declare-fun dst_reg_27_10 () (_ BitVec 32))
(declare-fun i28.i_27_82 () (_ BitVec 32))
(declare-fun dst_reg_27_9 () (_ BitVec 32))
(declare-fun i27.i_27_81 () (_ BitVec 32))
(declare-fun dst_reg_27_8 () (_ BitVec 32))
(declare-fun i26.i_27_80 () (_ BitVec 64))
(declare-fun i25.i_27_79 () (_ BitVec 64))
(declare-fun i24.i_27_78 () (_ BitVec 64))
(declare-fun dst_reg_27_5 () (_ BitVec 64))
(declare-fun i23.i_27_77 () (_ BitVec 64))
(declare-fun dst_reg_27_4 () (_ BitVec 64))
(declare-fun i22.i_27_76 () (_ BitVec 64))
(declare-fun dst_reg_27_3 () (_ BitVec 64))
(declare-fun i21.i_27_75 () (_ BitVec 64))
(declare-fun dst_reg_27_2 () (_ BitVec 64))
(declare-fun i.i_27_74 () (_ BitVec 32))
(declare-fun other_branch_src_reg_27_71 () (_ BitVec 8))
(declare-fun other_branch_src_reg_27_70 () (_ BitVec 32))
(declare-fun other_branch_src_reg_27_69 () (_ BitVec 32))
(declare-fun other_branch_src_reg_27_68 () (_ BitVec 32))
(declare-fun other_branch_src_reg_27_67 () (_ BitVec 32))
(declare-fun other_branch_src_reg_27_66 () (_ BitVec 32))
(declare-fun other_branch_src_reg_27_65 () (_ BitVec 32))
(declare-fun other_branch_src_reg_27_64 () (_ BitVec 32))
(declare-fun other_branch_src_reg_27_63 () (_ BitVec 32))
(declare-fun other_branch_src_reg_27_62 () (_ BitVec 32))
(declare-fun other_branch_src_reg_27_61 () (_ BitVec 64))
(declare-fun other_branch_src_reg_27_60 () (_ BitVec 64))
(declare-fun other_branch_src_reg_27_59 () (_ BitVec 64))
(declare-fun other_branch_src_reg_27_58 () (_ BitVec 64))
(declare-fun other_branch_src_reg_27_57 () (_ BitVec 64))
(declare-fun other_branch_src_reg_27_56 () (_ BitVec 64))
(declare-fun other_branch_src_reg_27_55 () (_ BitVec 32))
(declare-fun other_branch_src_reg_27_54 () (_ BitVec 32))
(declare-fun other_branch_dst_reg_27_53 () (_ BitVec 8))
(declare-fun other_branch_dst_reg_27_52 () (_ BitVec 32))
(declare-fun other_branch_dst_reg_27_51 () (_ BitVec 32))
(declare-fun other_branch_dst_reg_27_50 () (_ BitVec 32))
(declare-fun other_branch_dst_reg_27_49 () (_ BitVec 32))
(declare-fun other_branch_dst_reg_27_48 () (_ BitVec 32))
(declare-fun other_branch_dst_reg_27_47 () (_ BitVec 32))
(declare-fun other_branch_dst_reg_27_46 () (_ BitVec 32))
(declare-fun other_branch_dst_reg_27_45 () (_ BitVec 32))
(declare-fun other_branch_dst_reg_27_44 () (_ BitVec 32))
(declare-fun other_branch_dst_reg_27_43 () (_ BitVec 64))
(declare-fun other_branch_dst_reg_27_42 () (_ BitVec 64))
(declare-fun other_branch_dst_reg_27_41 () (_ BitVec 64))
(declare-fun other_branch_dst_reg_27_40 () (_ BitVec 64))
(declare-fun other_branch_dst_reg_27_39 () (_ BitVec 64))
(declare-fun other_branch_dst_reg_27_38 () (_ BitVec 64))
(declare-fun other_branch_dst_reg_27_37 () (_ BitVec 32))
(declare-fun other_branch_dst_reg_27_36 () (_ BitVec 32))
(declare-fun src_reg_27_35 () (_ BitVec 8))
(declare-fun src_reg_27_34 () (_ BitVec 32))
(declare-fun src_reg_27_33 () (_ BitVec 32))
(declare-fun src_reg_27_32 () (_ BitVec 32))
(declare-fun src_reg_27_31 () (_ BitVec 32))
(declare-fun src_reg_27_30 () (_ BitVec 32))
(declare-fun src_reg_27_19 () (_ BitVec 32))
(declare-fun src_reg_27_18 () (_ BitVec 32))
(declare-fun dst_reg_27_17 () (_ BitVec 8))
(declare-fun dst_reg_27_16 () (_ BitVec 32))
(declare-fun dst_reg_27_15 () (_ BitVec 32))
(declare-fun dst_reg_27_14 () (_ BitVec 32))
(declare-fun dst_reg_27_13 () (_ BitVec 32))
(declare-fun dst_reg_27_12 () (_ BitVec 32))
(declare-fun dst_reg_27_1 () (_ BitVec 32))
(declare-fun dst_reg_27_0 () (_ BitVec 32))
(declare-fun cmp.not.i_27_106 () (_ BitVec 1))
(declare-fun i.i35_27_104 () (_ BitVec 32))
(declare-fun cmp2.not.i_27_109 () (_ BitVec 1))
(declare-fun i1.i_27_107 () (_ BitVec 32))
(declare-fun i353.i493.i_27_124 () (_ BitVec 64))
(declare-fun cond300.i495.i_27_126 () (_ BitVec 64))
(declare-fun i352.i491.i_27_123 () (_ BitVec 64))
(declare-fun cmp295.i494.i_27_125 () (_ BitVec 1))
(declare-fun i351.i487.i_27_120 () (_ BitVec 64))
(declare-fun cond290.i489.i_27_122 () (_ BitVec 64))
(declare-fun i350.i485.i_27_119 () (_ BitVec 64))
(declare-fun cmp285.i488.i_27_121 () (_ BitVec 1))
(declare-fun i361.i.i_27_116 () (_ BitVec 64))
(declare-fun cond347.i.i_27_118 () (_ BitVec 64))
(declare-fun add339.i.i_27_115 () (_ BitVec 64))
(declare-fun cmp342.i.i_27_117 () (_ BitVec 1))
(declare-fun sub329.i.i_27_111 () (_ BitVec 64))
(declare-fun cond336.i.i_27_113 () (_ BitVec 64))
(declare-fun cmp331.i.i_27_112 () (_ BitVec 1))
(declare-fun other_branch_src_reg_27_270 () (_ BitVec 8))
(declare-fun other_branch_src_reg_27_198 () (_ BitVec 8))
(declare-fun other_branch_src_reg_27_269 () (_ BitVec 32))
(declare-fun other_branch_src_reg_27_197 () (_ BitVec 32))
(declare-fun other_branch_src_reg_27_268 () (_ BitVec 32))
(declare-fun other_branch_src_reg_27_196 () (_ BitVec 32))
(declare-fun other_branch_src_reg_27_267 () (_ BitVec 32))
(declare-fun other_branch_src_reg_27_195 () (_ BitVec 32))
(declare-fun other_branch_src_reg_27_266 () (_ BitVec 32))
(declare-fun other_branch_src_reg_27_194 () (_ BitVec 32))
(declare-fun other_branch_src_reg_27_265 () (_ BitVec 32))
(declare-fun other_branch_src_reg_27_193 () (_ BitVec 32))
(declare-fun other_branch_src_reg_27_264 () (_ BitVec 32))
(declare-fun other_branch_src_reg_27_192 () (_ BitVec 32))
(declare-fun other_branch_src_reg_27_263 () (_ BitVec 32))
(declare-fun other_branch_src_reg_27_191 () (_ BitVec 32))
(declare-fun other_branch_src_reg_27_262 () (_ BitVec 32))
(declare-fun other_branch_src_reg_27_190 () (_ BitVec 32))
(declare-fun other_branch_src_reg_27_261 () (_ BitVec 32))
(declare-fun other_branch_src_reg_27_189 () (_ BitVec 32))
(declare-fun other_branch_src_reg_27_260 () (_ BitVec 64))
(declare-fun other_branch_src_reg_27_188 () (_ BitVec 64))
(declare-fun other_branch_src_reg_27_259 () (_ BitVec 64))
(declare-fun other_branch_src_reg_27_187 () (_ BitVec 64))
(declare-fun other_branch_src_reg_27_258 () (_ BitVec 64))
(declare-fun other_branch_src_reg_27_186 () (_ BitVec 64))
(declare-fun other_branch_src_reg_27_257 () (_ BitVec 64))
(declare-fun other_branch_src_reg_27_185 () (_ BitVec 64))
(declare-fun other_branch_src_reg_27_256 () (_ BitVec 64))
(declare-fun other_branch_src_reg_27_184 () (_ BitVec 64))
(declare-fun other_branch_src_reg_27_255 () (_ BitVec 64))
(declare-fun other_branch_src_reg_27_183 () (_ BitVec 64))
(declare-fun other_branch_src_reg_27_254 () (_ BitVec 32))
(declare-fun other_branch_src_reg_27_182 () (_ BitVec 32))
(declare-fun other_branch_src_reg_27_253 () (_ BitVec 32))
(declare-fun other_branch_src_reg_27_181 () (_ BitVec 32))
(declare-fun other_branch_dst_reg_27_252 () (_ BitVec 8))
(declare-fun other_branch_dst_reg_27_180 () (_ BitVec 8))
(declare-fun other_branch_dst_reg_27_251 () (_ BitVec 32))
(declare-fun other_branch_dst_reg_27_179 () (_ BitVec 32))
(declare-fun other_branch_dst_reg_27_250 () (_ BitVec 32))
(declare-fun other_branch_dst_reg_27_178 () (_ BitVec 32))
(declare-fun other_branch_dst_reg_27_249 () (_ BitVec 32))
(declare-fun other_branch_dst_reg_27_177 () (_ BitVec 32))
(declare-fun other_branch_dst_reg_27_248 () (_ BitVec 32))
(declare-fun other_branch_dst_reg_27_176 () (_ BitVec 32))
(declare-fun other_branch_dst_reg_27_247 () (_ BitVec 32))
(declare-fun other_branch_dst_reg_27_175 () (_ BitVec 32))
(declare-fun other_branch_dst_reg_27_246 () (_ BitVec 32))
(declare-fun other_branch_dst_reg_27_174 () (_ BitVec 32))
(declare-fun other_branch_dst_reg_27_245 () (_ BitVec 32))
(declare-fun other_branch_dst_reg_27_173 () (_ BitVec 32))
(declare-fun other_branch_dst_reg_27_244 () (_ BitVec 32))
(declare-fun other_branch_dst_reg_27_172 () (_ BitVec 32))
(declare-fun other_branch_dst_reg_27_243 () (_ BitVec 32))
(declare-fun other_branch_dst_reg_27_171 () (_ BitVec 32))
(declare-fun other_branch_dst_reg_27_242 () (_ BitVec 64))
(declare-fun other_branch_dst_reg_27_170 () (_ BitVec 64))
(declare-fun other_branch_dst_reg_27_241 () (_ BitVec 64))
(declare-fun other_branch_dst_reg_27_169 () (_ BitVec 64))
(declare-fun other_branch_dst_reg_27_240 () (_ BitVec 64))
(declare-fun other_branch_dst_reg_27_168 () (_ BitVec 64))
(declare-fun other_branch_dst_reg_27_239 () (_ BitVec 64))
(declare-fun other_branch_dst_reg_27_167 () (_ BitVec 64))
(declare-fun other_branch_dst_reg_27_238 () (_ BitVec 64))
(declare-fun other_branch_dst_reg_27_166 () (_ BitVec 64))
(declare-fun other_branch_dst_reg_27_237 () (_ BitVec 64))
(declare-fun other_branch_dst_reg_27_165 () (_ BitVec 64))
(declare-fun other_branch_dst_reg_27_236 () (_ BitVec 32))
(declare-fun other_branch_dst_reg_27_164 () (_ BitVec 32))
(declare-fun other_branch_dst_reg_27_235 () (_ BitVec 32))
(declare-fun other_branch_dst_reg_27_163 () (_ BitVec 32))
(declare-fun src_reg_27_234 () (_ BitVec 8))
(declare-fun src_reg_27_162 () (_ BitVec 8))
(declare-fun src_reg_27_233 () (_ BitVec 32))
(declare-fun src_reg_27_161 () (_ BitVec 32))
(declare-fun src_reg_27_232 () (_ BitVec 32))
(declare-fun src_reg_27_160 () (_ BitVec 32))
(declare-fun src_reg_27_231 () (_ BitVec 32))
(declare-fun src_reg_27_159 () (_ BitVec 32))
(declare-fun src_reg_27_230 () (_ BitVec 32))
(declare-fun src_reg_27_158 () (_ BitVec 32))
(declare-fun src_reg_27_229 () (_ BitVec 32))
(declare-fun src_reg_27_157 () (_ BitVec 32))
(declare-fun src_reg_27_228 () (_ BitVec 32))
(declare-fun src_reg_27_156 () (_ BitVec 32))
(declare-fun src_reg_27_227 () (_ BitVec 32))
(declare-fun src_reg_27_155 () (_ BitVec 32))
(declare-fun src_reg_27_226 () (_ BitVec 32))
(declare-fun src_reg_27_154 () (_ BitVec 32))
(declare-fun src_reg_27_225 () (_ BitVec 32))
(declare-fun src_reg_27_153 () (_ BitVec 32))
(declare-fun src_reg_27_224 () (_ BitVec 64))
(declare-fun src_reg_27_152 () (_ BitVec 64))
(declare-fun src_reg_27_223 () (_ BitVec 64))
(declare-fun src_reg_27_151 () (_ BitVec 64))
(declare-fun src_reg_27_222 () (_ BitVec 64))
(declare-fun src_reg_27_150 () (_ BitVec 64))
(declare-fun src_reg_27_221 () (_ BitVec 64))
(declare-fun src_reg_27_149 () (_ BitVec 64))
(declare-fun src_reg_27_220 () (_ BitVec 64))
(declare-fun src_reg_27_148 () (_ BitVec 64))
(declare-fun src_reg_27_219 () (_ BitVec 64))
(declare-fun src_reg_27_147 () (_ BitVec 64))
(declare-fun src_reg_27_218 () (_ BitVec 32))
(declare-fun src_reg_27_146 () (_ BitVec 32))
(declare-fun src_reg_27_217 () (_ BitVec 32))
(declare-fun src_reg_27_145 () (_ BitVec 32))
(declare-fun dst_reg_27_216 () (_ BitVec 8))
(declare-fun dst_reg_27_144 () (_ BitVec 8))
(declare-fun dst_reg_27_215 () (_ BitVec 32))
(declare-fun dst_reg_27_143 () (_ BitVec 32))
(declare-fun dst_reg_27_214 () (_ BitVec 32))
(declare-fun dst_reg_27_142 () (_ BitVec 32))
(declare-fun dst_reg_27_213 () (_ BitVec 32))
(declare-fun dst_reg_27_141 () (_ BitVec 32))
(declare-fun dst_reg_27_212 () (_ BitVec 32))
(declare-fun dst_reg_27_140 () (_ BitVec 32))
(declare-fun dst_reg_27_211 () (_ BitVec 32))
(declare-fun dst_reg_27_139 () (_ BitVec 32))
(declare-fun dst_reg_27_210 () (_ BitVec 32))
(declare-fun dst_reg_27_138 () (_ BitVec 32))
(declare-fun dst_reg_27_209 () (_ BitVec 32))
(declare-fun dst_reg_27_137 () (_ BitVec 32))
(declare-fun dst_reg_27_208 () (_ BitVec 32))
(declare-fun dst_reg_27_136 () (_ BitVec 32))
(declare-fun dst_reg_27_207 () (_ BitVec 32))
(declare-fun dst_reg_27_135 () (_ BitVec 32))
(declare-fun dst_reg_27_206 () (_ BitVec 64))
(declare-fun dst_reg_27_134 () (_ BitVec 64))
(declare-fun dst_reg_27_205 () (_ BitVec 64))
(declare-fun dst_reg_27_133 () (_ BitVec 64))
(declare-fun dst_reg_27_204 () (_ BitVec 64))
(declare-fun dst_reg_27_132 () (_ BitVec 64))
(declare-fun dst_reg_27_203 () (_ BitVec 64))
(declare-fun dst_reg_27_131 () (_ BitVec 64))
(declare-fun dst_reg_27_202 () (_ BitVec 64))
(declare-fun dst_reg_27_130 () (_ BitVec 64))
(declare-fun dst_reg_27_201 () (_ BitVec 64))
(declare-fun dst_reg_27_129 () (_ BitVec 64))
(declare-fun dst_reg_27_200 () (_ BitVec 32))
(declare-fun dst_reg_27_128 () (_ BitVec 32))
(declare-fun dst_reg_27_199 () (_ BitVec 32))
(declare-fun dst_reg_27_127 () (_ BitVec 32))
(assert (let ((a!1 (and (= cmp2.not.i_27_109 #b1)
                (and (= cmp.not.i_27_106 #b1) (= narrow_27_103 #b0))))
      (a!2 (and (= cmp2.not.i_27_109 #b0)
                (and (= cmp.not.i_27_106 #b1) (= narrow_27_103 #b0))))
      (a!3 (and (= i.i2_27_85 other_branch_src_reg_27_181)
                (= other_branch_src_reg_27_55 other_branch_src_reg_27_182)
                (= i21.i5_27_86 other_branch_src_reg_27_183)
                (= i22.i8_27_87 other_branch_src_reg_27_184)
                (= i23.i11_27_88 other_branch_src_reg_27_185)
                (= i24.i14_27_89 other_branch_src_reg_27_186)
                (= i25.i17_27_90 other_branch_src_reg_27_187)
                (= i26.i20_27_91 other_branch_src_reg_27_188)
                (= i27.i23_27_92 other_branch_src_reg_27_189)
                (= i28.i26_27_93 other_branch_src_reg_27_190)
                (= i29.i29_27_94 other_branch_src_reg_27_191)
                (= i30.i32_27_95 other_branch_src_reg_27_192)
                (= other_branch_src_reg_27_66 other_branch_src_reg_27_193)
                (= other_branch_src_reg_27_67 other_branch_src_reg_27_194)
                (= other_branch_src_reg_27_68 other_branch_src_reg_27_195)
                (= other_branch_src_reg_27_69 other_branch_src_reg_27_196)
                (= other_branch_src_reg_27_70 other_branch_src_reg_27_197)
                (= other_branch_src_reg_27_71 other_branch_src_reg_27_198)
                (= i.i_27_74 other_branch_dst_reg_27_163)
                (= other_branch_dst_reg_27_37 other_branch_dst_reg_27_164)
                (= i21.i_27_75 other_branch_dst_reg_27_165)
                (= i22.i_27_76 other_branch_dst_reg_27_166)
                (= i23.i_27_77 other_branch_dst_reg_27_167)
                (= i24.i_27_78 other_branch_dst_reg_27_168)
                (= i25.i_27_79 other_branch_dst_reg_27_169)
                (= i26.i_27_80 other_branch_dst_reg_27_170)
                (= i27.i_27_81 other_branch_dst_reg_27_171)
                (= i28.i_27_82 other_branch_dst_reg_27_172)
                (= i29.i_27_83 other_branch_dst_reg_27_173)
                (= i30.i_27_84 other_branch_dst_reg_27_174)
                (= other_branch_dst_reg_27_48 other_branch_dst_reg_27_175)
                (= other_branch_dst_reg_27_49 other_branch_dst_reg_27_176)
                (= other_branch_dst_reg_27_50 other_branch_dst_reg_27_177)
                (= other_branch_dst_reg_27_51 other_branch_dst_reg_27_178)
                (= other_branch_dst_reg_27_52 other_branch_dst_reg_27_179)
                (= other_branch_dst_reg_27_53 other_branch_dst_reg_27_180)
                (= #x00000001 src_reg_27_145)
                (= src_reg_27_19 src_reg_27_146)
                (= src_reg_27_20 src_reg_27_147)
                (= src_reg_27_21 src_reg_27_148)
                (= src_reg_27_22 src_reg_27_149)
                (= src_reg_27_23 src_reg_27_150)
                (= src_reg_27_24 src_reg_27_151)
                (= src_reg_27_25 src_reg_27_152)
                (= src_reg_27_26 src_reg_27_153)
                (= src_reg_27_27 src_reg_27_154)
                (= src_reg_27_28 src_reg_27_155)
                (= src_reg_27_29 src_reg_27_156)
                (= src_reg_27_30 src_reg_27_157)
                (= src_reg_27_31 src_reg_27_158)
                (= src_reg_27_32 src_reg_27_159)
                (= src_reg_27_33 src_reg_27_160)
                (= src_reg_27_34 src_reg_27_161)
                (= src_reg_27_35 src_reg_27_162)
                (= #x00000001 dst_reg_27_127)
                (= dst_reg_27_1 dst_reg_27_128)
                (= dst_reg_27_2 dst_reg_27_129)
                (= dst_reg_27_3 dst_reg_27_130)
                (= dst_reg_27_4 dst_reg_27_131)
                (= dst_reg_27_5 dst_reg_27_132)
                (= dst_reg_27_6 dst_reg_27_133)
                (= dst_reg_27_7 dst_reg_27_134)
                (= dst_reg_27_8 dst_reg_27_135)
                (= dst_reg_27_9 dst_reg_27_136)
                (= dst_reg_27_10 dst_reg_27_137)
                (= dst_reg_27_11 dst_reg_27_138)
                (= dst_reg_27_12 dst_reg_27_139)
                (= dst_reg_27_13 dst_reg_27_140)
                (= dst_reg_27_14 dst_reg_27_141)
                (= dst_reg_27_15 dst_reg_27_142)
                (= dst_reg_27_16 dst_reg_27_143)
                (= dst_reg_27_17 dst_reg_27_144)))
      (a!7 (=> (and (= cmp.not.i_27_106 #b1) (= narrow_27_103 #b0))
               (and (= #x00000001 i1.i_27_107)
                    (ite (= i1.i_27_107 #x00000001)
                         (= cmp2.not.i_27_109 #b1)
                         (= cmp2.not.i_27_109 #b0)))))
      (a!8 (=> (= narrow_27_103 #b0)
               (and (= #x00000001 i.i35_27_104)
                    (ite (= i.i35_27_104 #x00000001)
                         (= cmp.not.i_27_106 #b1)
                         (= cmp.not.i_27_106 #b0))))))
(let ((a!4 (and (=> (= narrow_27_103 #b1) a!3)
                (=> (and (= cmp.not.i_27_106 #b0) (= narrow_27_103 #b0)) a!3)
                (=> a!2 a!3)
                (=> a!1
                    (and (= i.i2_27_85 other_branch_src_reg_27_181)
                         (= other_branch_src_reg_27_55
                            other_branch_src_reg_27_182)
                         (= i21.i5_27_86 other_branch_src_reg_27_183)
                         (= i22.i8_27_87 other_branch_src_reg_27_184)
                         (= i23.i11_27_88 other_branch_src_reg_27_185)
                         (= i24.i14_27_89 other_branch_src_reg_27_186)
                         (= i25.i17_27_90 other_branch_src_reg_27_187)
                         (= cond290.i489.i_27_122 other_branch_src_reg_27_188)
                         (= i27.i23_27_92 other_branch_src_reg_27_189)
                         (= i28.i26_27_93 other_branch_src_reg_27_190)
                         (= i29.i29_27_94 other_branch_src_reg_27_191)
                         (= i30.i32_27_95 other_branch_src_reg_27_192)
                         (= other_branch_src_reg_27_66
                            other_branch_src_reg_27_193)
                         (= other_branch_src_reg_27_67
                            other_branch_src_reg_27_194)
                         (= other_branch_src_reg_27_68
                            other_branch_src_reg_27_195)
                         (= other_branch_src_reg_27_69
                            other_branch_src_reg_27_196)
                         (= other_branch_src_reg_27_70
                            other_branch_src_reg_27_197)
                         (= other_branch_src_reg_27_71
                            other_branch_src_reg_27_198)
                         (= i.i_27_74 other_branch_dst_reg_27_163)
                         (= other_branch_dst_reg_27_37
                            other_branch_dst_reg_27_164)
                         (= i21.i_27_75 other_branch_dst_reg_27_165)
                         (= i22.i_27_76 other_branch_dst_reg_27_166)
                         (= i23.i_27_77 other_branch_dst_reg_27_167)
                         (= i24.i_27_78 other_branch_dst_reg_27_168)
                         (= cond300.i495.i_27_126 other_branch_dst_reg_27_169)
                         (= i26.i_27_80 other_branch_dst_reg_27_170)
                         (= i27.i_27_81 other_branch_dst_reg_27_171)
                         (= i28.i_27_82 other_branch_dst_reg_27_172)
                         (= i29.i_27_83 other_branch_dst_reg_27_173)
                         (= i30.i_27_84 other_branch_dst_reg_27_174)
                         (= other_branch_dst_reg_27_48
                            other_branch_dst_reg_27_175)
                         (= other_branch_dst_reg_27_49
                            other_branch_dst_reg_27_176)
                         (= other_branch_dst_reg_27_50
                            other_branch_dst_reg_27_177)
                         (= other_branch_dst_reg_27_51
                            other_branch_dst_reg_27_178)
                         (= other_branch_dst_reg_27_52
                            other_branch_dst_reg_27_179)
                         (= other_branch_dst_reg_27_53
                            other_branch_dst_reg_27_180)
                         (= #x00000001 src_reg_27_145)
                         (= src_reg_27_19 src_reg_27_146)
                         (= src_reg_27_20 src_reg_27_147)
                         (= src_reg_27_21 src_reg_27_148)
                         (= src_reg_27_22 src_reg_27_149)
                         (= src_reg_27_23 src_reg_27_150)
                         (= cond347.i.i_27_118 src_reg_27_151)
                         (= src_reg_27_25 src_reg_27_152)
                         (= src_reg_27_26 src_reg_27_153)
                         (= src_reg_27_27 src_reg_27_154)
                         (= src_reg_27_28 src_reg_27_155)
                         (= src_reg_27_29 src_reg_27_156)
                         (= src_reg_27_30 src_reg_27_157)
                         (= src_reg_27_31 src_reg_27_158)
                         (= src_reg_27_32 src_reg_27_159)
                         (= src_reg_27_33 src_reg_27_160)
                         (= src_reg_27_34 src_reg_27_161)
                         (= src_reg_27_35 src_reg_27_162)
                         (= #x00000001 dst_reg_27_127)
                         (= dst_reg_27_1 dst_reg_27_128)
                         (= dst_reg_27_2 dst_reg_27_129)
                         (= dst_reg_27_3 dst_reg_27_130)
                         (= dst_reg_27_4 dst_reg_27_131)
                         (= dst_reg_27_5 dst_reg_27_132)
                         (= dst_reg_27_6 dst_reg_27_133)
                         (= cond336.i.i_27_113 dst_reg_27_134)
                         (= dst_reg_27_8 dst_reg_27_135)
                         (= dst_reg_27_9 dst_reg_27_136)
                         (= dst_reg_27_10 dst_reg_27_137)
                         (= dst_reg_27_11 dst_reg_27_138)
                         (= dst_reg_27_12 dst_reg_27_139)
                         (= dst_reg_27_13 dst_reg_27_140)
                         (= dst_reg_27_14 dst_reg_27_141)
                         (= dst_reg_27_15 dst_reg_27_142)
                         (= dst_reg_27_16 dst_reg_27_143)
                         (= dst_reg_27_17 dst_reg_27_144)))
                (= dst_reg_27_127 dst_reg_27_199)
                (= dst_reg_27_128 dst_reg_27_200)
                (= dst_reg_27_129 dst_reg_27_201)
                (= dst_reg_27_130 dst_reg_27_202)
                (= dst_reg_27_131 dst_reg_27_203)
                (= dst_reg_27_132 dst_reg_27_204)
                (= dst_reg_27_133 dst_reg_27_205)
                (= dst_reg_27_134 dst_reg_27_206)
                (= dst_reg_27_135 dst_reg_27_207)
                (= dst_reg_27_136 dst_reg_27_208)
                (= dst_reg_27_137 dst_reg_27_209)
                (= dst_reg_27_138 dst_reg_27_210)
                (= dst_reg_27_139 dst_reg_27_211)
                (= dst_reg_27_140 dst_reg_27_212)
                (= dst_reg_27_141 dst_reg_27_213)
                (= dst_reg_27_142 dst_reg_27_214)
                (= dst_reg_27_143 dst_reg_27_215)
                (= dst_reg_27_144 dst_reg_27_216)
                (= src_reg_27_145 src_reg_27_217)
                (= src_reg_27_146 src_reg_27_218)
                (= src_reg_27_147 src_reg_27_219)
                (= src_reg_27_148 src_reg_27_220)
                (= src_reg_27_149 src_reg_27_221)
                (= src_reg_27_150 src_reg_27_222)
                (= src_reg_27_151 src_reg_27_223)
                (= src_reg_27_152 src_reg_27_224)
                (= src_reg_27_153 src_reg_27_225)
                (= src_reg_27_154 src_reg_27_226)
                (= src_reg_27_155 src_reg_27_227)
                (= src_reg_27_156 src_reg_27_228)
                (= src_reg_27_157 src_reg_27_229)
                (= src_reg_27_158 src_reg_27_230)
                (= src_reg_27_159 src_reg_27_231)
                (= src_reg_27_160 src_reg_27_232)
                (= src_reg_27_161 src_reg_27_233)
                (= src_reg_27_162 src_reg_27_234)
                (= other_branch_dst_reg_27_163 other_branch_dst_reg_27_235)
                (= other_branch_dst_reg_27_164 other_branch_dst_reg_27_236)
                (= other_branch_dst_reg_27_165 other_branch_dst_reg_27_237)
                (= other_branch_dst_reg_27_166 other_branch_dst_reg_27_238)
                (= other_branch_dst_reg_27_167 other_branch_dst_reg_27_239)
                (= other_branch_dst_reg_27_168 other_branch_dst_reg_27_240)
                (= other_branch_dst_reg_27_169 other_branch_dst_reg_27_241)
                (= other_branch_dst_reg_27_170 other_branch_dst_reg_27_242)
                (= other_branch_dst_reg_27_171 other_branch_dst_reg_27_243)
                (= other_branch_dst_reg_27_172 other_branch_dst_reg_27_244)
                (= other_branch_dst_reg_27_173 other_branch_dst_reg_27_245)
                (= other_branch_dst_reg_27_174 other_branch_dst_reg_27_246)
                (= other_branch_dst_reg_27_175 other_branch_dst_reg_27_247)
                (= other_branch_dst_reg_27_176 other_branch_dst_reg_27_248)
                (= other_branch_dst_reg_27_177 other_branch_dst_reg_27_249)
                (= other_branch_dst_reg_27_178 other_branch_dst_reg_27_250)
                (= other_branch_dst_reg_27_179 other_branch_dst_reg_27_251)
                (= other_branch_dst_reg_27_180 other_branch_dst_reg_27_252)
                (= other_branch_src_reg_27_181 other_branch_src_reg_27_253)
                (= other_branch_src_reg_27_182 other_branch_src_reg_27_254)
                (= other_branch_src_reg_27_183 other_branch_src_reg_27_255)
                (= other_branch_src_reg_27_184 other_branch_src_reg_27_256)
                (= other_branch_src_reg_27_185 other_branch_src_reg_27_257)
                (= other_branch_src_reg_27_186 other_branch_src_reg_27_258)
                (= other_branch_src_reg_27_187 other_branch_src_reg_27_259)
                (= other_branch_src_reg_27_188 other_branch_src_reg_27_260)
                (= other_branch_src_reg_27_189 other_branch_src_reg_27_261)
                (= other_branch_src_reg_27_190 other_branch_src_reg_27_262)
                (= other_branch_src_reg_27_191 other_branch_src_reg_27_263)
                (= other_branch_src_reg_27_192 other_branch_src_reg_27_264)
                (= other_branch_src_reg_27_193 other_branch_src_reg_27_265)
                (= other_branch_src_reg_27_194 other_branch_src_reg_27_266)
                (= other_branch_src_reg_27_195 other_branch_src_reg_27_267)
                (= other_branch_src_reg_27_196 other_branch_src_reg_27_268)
                (= other_branch_src_reg_27_197 other_branch_src_reg_27_269)
                (= other_branch_src_reg_27_198 other_branch_src_reg_27_270)))
      (a!6 (=> a!1
               (and (= sub329.i.i_27_111
                       (bvadd i143.i.i_27_99 #xffffffffffffffff))
                    (ite (bvult i135.i.i_27_97 sub329.i.i_27_111)
                         (= cmp331.i.i_27_112 #b1)
                         (= cmp331.i.i_27_112 #b0))
                    (ite (= cmp331.i.i_27_112 #b1)
                         (= cond336.i.i_27_113 i135.i.i_27_97)
                         (= cond336.i.i_27_113 sub329.i.i_27_111))
                    (= add339.i.i_27_115
                       (bvadd i133.i.i_27_96 #x0000000000000001))
                    (= src_reg_27_24 i361.i.i_27_116)
                    (ite (bvugt add339.i.i_27_115 i361.i.i_27_116)
                         (= cmp342.i.i_27_117 #b1)
                         (= cmp342.i.i_27_117 #b0))
                    (ite (= cmp342.i.i_27_117 #b1)
                         (= cond347.i.i_27_118 add339.i.i_27_115)
                         (= cond347.i.i_27_118 i361.i.i_27_116))
                    (= i26.i20_27_91 i350.i485.i_27_119)
                    (= i26.i_27_80 i351.i487.i_27_120)
                    (ite (bvult i350.i485.i_27_119 i351.i487.i_27_120)
                         (= cmp285.i488.i_27_121 #b1)
                         (= cmp285.i488.i_27_121 #b0))
                    (ite (= cmp285.i488.i_27_121 #b1)
                         (= cond290.i489.i_27_122 i350.i485.i_27_119)
                         (= cond290.i489.i_27_122 i351.i487.i_27_120))
                    (= i25.i17_27_90 i352.i491.i_27_123)
                    (= i25.i_27_79 i353.i493.i_27_124)
                    (ite (bvugt i352.i491.i_27_123 i353.i493.i_27_124)
                         (= cmp295.i494.i_27_125 #b1)
                         (= cmp295.i494.i_27_125 #b0))
                    (ite (= cmp295.i494.i_27_125 #b1)
                         (= cond300.i495.i_27_126 i352.i491.i_27_123)
                         (= cond300.i495.i_27_126 i353.i493.i_27_124))))))
(let ((a!5 (=> (or a!1
                   a!2
                   (and (= cmp.not.i_27_106 #b0) (= narrow_27_103 #b0))
                   (= narrow_27_103 #b1))
               a!4)))
  (and a!5
       a!6
       a!7
       a!8
       (= dst_reg_27_0 dst_reg_27_0)
       (= dst_reg_27_1 dst_reg_27_1)
       (= dst_reg_27_2 dst_reg_27_2)
       (= dst_reg_27_3 dst_reg_27_3)
       (= dst_reg_27_4 dst_reg_27_4)
       (= dst_reg_27_5 dst_reg_27_5)
       (= dst_reg_27_6 dst_reg_27_6)
       (= dst_reg_27_7 dst_reg_27_7)
       (= dst_reg_27_8 dst_reg_27_8)
       (= dst_reg_27_9 dst_reg_27_9)
       (= dst_reg_27_10 dst_reg_27_10)
       (= dst_reg_27_11 dst_reg_27_11)
       (= dst_reg_27_12 dst_reg_27_12)
       (= dst_reg_27_13 dst_reg_27_13)
       (= dst_reg_27_14 dst_reg_27_14)
       (= dst_reg_27_15 dst_reg_27_15)
       (= dst_reg_27_16 dst_reg_27_16)
       (= dst_reg_27_17 dst_reg_27_17)
       (= src_reg_27_18 src_reg_27_18)
       (= src_reg_27_19 src_reg_27_19)
       (= src_reg_27_20 src_reg_27_20)
       (= src_reg_27_21 src_reg_27_21)
       (= src_reg_27_22 src_reg_27_22)
       (= src_reg_27_23 src_reg_27_23)
       (= src_reg_27_24 src_reg_27_24)
       (= src_reg_27_25 src_reg_27_25)
       (= src_reg_27_26 src_reg_27_26)
       (= src_reg_27_27 src_reg_27_27)
       (= src_reg_27_28 src_reg_27_28)
       (= src_reg_27_29 src_reg_27_29)
       (= src_reg_27_30 src_reg_27_30)
       (= src_reg_27_31 src_reg_27_31)
       (= src_reg_27_32 src_reg_27_32)
       (= src_reg_27_33 src_reg_27_33)
       (= src_reg_27_34 src_reg_27_34)
       (= src_reg_27_35 src_reg_27_35)
       (= other_branch_dst_reg_27_36 other_branch_dst_reg_27_36)
       (= other_branch_dst_reg_27_37 other_branch_dst_reg_27_37)
       (= other_branch_dst_reg_27_38 other_branch_dst_reg_27_38)
       (= other_branch_dst_reg_27_39 other_branch_dst_reg_27_39)
       (= other_branch_dst_reg_27_40 other_branch_dst_reg_27_40)
       (= other_branch_dst_reg_27_41 other_branch_dst_reg_27_41)
       (= other_branch_dst_reg_27_42 other_branch_dst_reg_27_42)
       (= other_branch_dst_reg_27_43 other_branch_dst_reg_27_43)
       (= other_branch_dst_reg_27_44 other_branch_dst_reg_27_44)
       (= other_branch_dst_reg_27_45 other_branch_dst_reg_27_45)
       (= other_branch_dst_reg_27_46 other_branch_dst_reg_27_46)
       (= other_branch_dst_reg_27_47 other_branch_dst_reg_27_47)
       (= other_branch_dst_reg_27_48 other_branch_dst_reg_27_48)
       (= other_branch_dst_reg_27_49 other_branch_dst_reg_27_49)
       (= other_branch_dst_reg_27_50 other_branch_dst_reg_27_50)
       (= other_branch_dst_reg_27_51 other_branch_dst_reg_27_51)
       (= other_branch_dst_reg_27_52 other_branch_dst_reg_27_52)
       (= other_branch_dst_reg_27_53 other_branch_dst_reg_27_53)
       (= other_branch_src_reg_27_54 other_branch_src_reg_27_54)
       (= other_branch_src_reg_27_55 other_branch_src_reg_27_55)
       (= other_branch_src_reg_27_56 other_branch_src_reg_27_56)
       (= other_branch_src_reg_27_57 other_branch_src_reg_27_57)
       (= other_branch_src_reg_27_58 other_branch_src_reg_27_58)
       (= other_branch_src_reg_27_59 other_branch_src_reg_27_59)
       (= other_branch_src_reg_27_60 other_branch_src_reg_27_60)
       (= other_branch_src_reg_27_61 other_branch_src_reg_27_61)
       (= other_branch_src_reg_27_62 other_branch_src_reg_27_62)
       (= other_branch_src_reg_27_63 other_branch_src_reg_27_63)
       (= other_branch_src_reg_27_64 other_branch_src_reg_27_64)
       (= other_branch_src_reg_27_65 other_branch_src_reg_27_65)
       (= other_branch_src_reg_27_66 other_branch_src_reg_27_66)
       (= other_branch_src_reg_27_67 other_branch_src_reg_27_67)
       (= other_branch_src_reg_27_68 other_branch_src_reg_27_68)
       (= other_branch_src_reg_27_69 other_branch_src_reg_27_69)
       (= other_branch_src_reg_27_70 other_branch_src_reg_27_70)
       (= other_branch_src_reg_27_71 other_branch_src_reg_27_71)
       (= #x00000001 i.i_27_74)
       (= dst_reg_27_2 i21.i_27_75)
       (= dst_reg_27_3 i22.i_27_76)
       (= dst_reg_27_4 i23.i_27_77)
       (= dst_reg_27_5 i24.i_27_78)
       (= dst_reg_27_6 i25.i_27_79)
       (= dst_reg_27_7 i26.i_27_80)
       (= dst_reg_27_8 i27.i_27_81)
       (= dst_reg_27_9 i28.i_27_82)
       (= dst_reg_27_10 i29.i_27_83)
       (= dst_reg_27_11 i30.i_27_84)
       (= #x00000001 i.i2_27_85)
       (= src_reg_27_20 i21.i5_27_86)
       (= src_reg_27_21 i22.i8_27_87)
       (= src_reg_27_22 i23.i11_27_88)
       (= src_reg_27_23 i24.i14_27_89)
       (= src_reg_27_24 i25.i17_27_90)
       (= src_reg_27_25 i26.i20_27_91)
       (= src_reg_27_26 i27.i23_27_92)
       (= src_reg_27_27 i28.i26_27_93)
       (= src_reg_27_28 i29.i29_27_94)
       (= src_reg_27_29 i30.i32_27_95)
       (= dst_reg_27_6 i133.i.i_27_96)
       (= dst_reg_27_7 i135.i.i_27_97)
       (= src_reg_27_24 i141.i.i_27_98)
       (= src_reg_27_25 i143.i.i_27_99)
       (ite (bvuge i133.i.i_27_96 i143.i.i_27_99)
            (= cmp231.not.i.i_27_100 #b1)
            (= cmp231.not.i.i_27_100 #b0))
       (ite (bvult i135.i.i_27_97 i141.i.i_27_98)
            (= cmp235.i.i_27_101 #b1)
            (= cmp235.i.i_27_101 #b0))
       (ite (= cmp231.not.i.i_27_100 #b1)
            (= narrow_27_103 #b1)
            (= narrow_27_103 cmp235.i.i_27_101)))))))

;{"dst_reg":["dst_reg_27_0","dst_reg_27_1",[""],["dst_reg_27_2","dst_reg_27_3"],"dst_reg_27_4","dst_reg_27_5","dst_reg_27_6","dst_reg_27_7","dst_reg_27_8","dst_reg_27_9","dst_reg_27_10","dst_reg_27_11","dst_reg_27_12","dst_reg_27_13","","","dst_reg_27_14","dst_reg_27_15","dst_reg_27_16"],"other_branch_dst_reg":["other_branch_dst_reg_27_36","other_branch_dst_reg_27_37",[""],["other_branch_dst_reg_27_38","other_branch_dst_reg_27_39"],"other_branch_dst_reg_27_40","other_branch_dst_reg_27_41","other_branch_dst_reg_27_42","other_branch_dst_reg_27_43","other_branch_dst_reg_27_44","other_branch_dst_reg_27_45","other_branch_dst_reg_27_46","other_branch_dst_reg_27_47","other_branch_dst_reg_27_48","other_branch_dst_reg_27_49","","","other_branch_dst_reg_27_50","other_branch_dst_reg_27_51","other_branch_dst_reg_27_52"],"other_branch_src_reg":["other_branch_src_reg_27_54","other_branch_src_reg_27_55",[""],["other_branch_src_reg_27_56","other_branch_src_reg_27_57"],"other_branch_src_reg_27_58","other_branch_src_reg_27_59","other_branch_src_reg_27_60","other_branch_src_reg_27_61","other_branch_src_reg_27_62","other_branch_src_reg_27_63","other_branch_src_reg_27_64","other_branch_src_reg_27_65","other_branch_src_reg_27_66","other_branch_src_reg_27_67","","","other_branch_src_reg_27_68","other_branch_src_reg_27_69","other_branch_src_reg_27_70"],"src_reg":["src_reg_27_18","src_reg_27_19",[""],["src_reg_27_20","src_reg_27_21"],"src_reg_27_22","src_reg_27_23","src_reg_27_24","src_reg_27_25","src_reg_27_26","src_reg_27_27","src_reg_27_28","src_reg_27_29","src_reg_27_30","src_reg_27_31","","","src_reg_27_32","src_reg_27_33","src_reg_27_34"]}
;{"dst_reg":["dst_reg_27_199","dst_reg_27_200",[""],["dst_reg_27_201","dst_reg_27_202"],"dst_reg_27_203","dst_reg_27_204","dst_reg_27_205","dst_reg_27_206","dst_reg_27_207","dst_reg_27_208","dst_reg_27_209","dst_reg_27_210","dst_reg_27_211","dst_reg_27_212","","","dst_reg_27_213","dst_reg_27_214","dst_reg_27_215"],"other_branch_dst_reg":["other_branch_dst_reg_27_235","other_branch_dst_reg_27_236",[""],["other_branch_dst_reg_27_237","other_branch_dst_reg_27_238"],"other_branch_dst_reg_27_239","other_branch_dst_reg_27_240","other_branch_dst_reg_27_241","other_branch_dst_reg_27_242","other_branch_dst_reg_27_243","other_branch_dst_reg_27_244","other_branch_dst_reg_27_245","other_branch_dst_reg_27_246","other_branch_dst_reg_27_247","other_branch_dst_reg_27_248","","","other_branch_dst_reg_27_249","other_branch_dst_reg_27_250","other_branch_dst_reg_27_251"],"other_branch_src_reg":["other_branch_src_reg_27_253","other_branch_src_reg_27_254",[""],["other_branch_src_reg_27_255","other_branch_src_reg_27_256"],"other_branch_src_reg_27_257","other_branch_src_reg_27_258","other_branch_src_reg_27_259","other_branch_src_reg_27_260","other_branch_src_reg_27_261","other_branch_src_reg_27_262","other_branch_src_reg_27_263","other_branch_src_reg_27_264","other_branch_src_reg_27_265","other_branch_src_reg_27_266","","","other_branch_src_reg_27_267","other_branch_src_reg_27_268","other_branch_src_reg_27_269"],"src_reg":["src_reg_27_217","src_reg_27_218",[""],["src_reg_27_219","src_reg_27_220"],"src_reg_27_221","src_reg_27_222","src_reg_27_223","src_reg_27_224","src_reg_27_225","src_reg_27_226","src_reg_27_227","src_reg_27_228","src_reg_27_229","src_reg_27_230","","","src_reg_27_231","src_reg_27_232","src_reg_27_233"]}
